p cnf 86 946
-86 0
-86 -83 0
-86 -83 -42 0
-86 -83 -40 0
-86 -81 0
-86 -81 -40 0
-86 -69 0
-86 -60 0
-86 -48 0
-86 -48 -2 0
-86 -46 0
-86 -46 -43 0
-86 -46 -2 0
-86 -43 0
-86 -43 -40 0
-86 -43 -8 0
-86 -42 0
-86 -42 -34 0
-86 -42 -2 0
-86 -40 -34 0
-86 -34 0
-86 -8 0
-86 -8 -2 0
-85 0
-85 -82 0
-85 -82 -41 0
-85 -82 -39 0
-85 -80 0
-85 -80 -39 0
-85 -68 0
-85 -59 0
-85 -47 0
-85 -47 -1 0
-85 -45 0
-85 -45 -42 0
-85 -45 -1 0
-85 -42 0
-85 -42 -39 0
-85 -42 -7 0
-85 -41 0
-85 -41 -33 0
-85 -41 -1 0
-85 -39 -33 0
-85 -33 0
-85 -7 0
-85 -7 -1 0
-84 0
-84 -81 0
-84 -81 -40 0
-84 -81 -38 0
-84 -79 0
-84 -79 -38 0
-84 -67 0
-84 -58 0
-84 -46 0
-84 -46 -43 0
-84 -44 0
-84 -44 -43 0
-84 -44 -41 0
-84 -43 -40 0
-84 -43 -6 0
-84 -41 0
-84 -41 -38 0
-84 -41 -6 0
-84 -40 0
-84 -40 -32 0
-84 -38 -32 0
-84 -32 0
-84 -6 0
-83 0
-83 -80 0
-83 -80 -39 0
-83 -80 -37 0
-83 -78 0
-83 -78 -37 0
-83 -66 0
-83 -57 0
-83 -45 0
-83 -45 -42 0
-83 -42 -39 0
-83 -42 -5 0
-83 -40 0
-83 -40 -37 0
-83 -40 -5 0
-83 -39 0
-83 -39 -31 0
-83 -37 -31 0
-83 -31 0
-83 -5 0
-82 0
-82 -79 0
-82 -79 -38 0
-82 -79 -36 0
-82 -77 0
-82 -77 -36 0
-82 -65 0
-82 -56 0
-82 -44 0
-82 -44 -41 0
-82 -41 -38 0
-82 -41 -4 0
-82 -39 0
-82 -39 -36 0
-82 -39 -4 0
-82 -38 0
-82 -38 -30 0
-82 -36 -30 0
-82 -30 0
-82 -4 0
-81 0
-81 -78 0
-81 -78 -37 0
-81 -78 -35 0
-81 -76 0
-81 -76 -35 0
-81 -64 0
-81 -55 0
-81 -40 -37 0
-81 -40 -3 0
-81 -38 0
-81 -38 -35 0
-81 -38 -3 0
-81 -37 0
-81 -37 -29 0
-81 -35 -29 0
-81 -29 0
-81 -3 0
-80 0
-80 -77 0
-80 -77 -36 0
-80 -77 -34 0
-80 -75 0
-80 -75 -34 0
-80 -63 0
-80 -54 0
-80 -39 -36 0
-80 -39 -2 0
-80 -37 0
-80 -37 -34 0
-80 -37 -2 0
-80 -36 0
-80 -36 -28 0
-80 -34 -28 0
-80 -28 0
-80 -2 0
-79 0
-79 -76 0
-79 -76 -35 0
-79 -76 -33 0
-79 -74 0
-79 -74 -33 0
-79 -62 0
-79 -53 0
-79 -38 -35 0
-79 -38 -1 0
-79 -36 0
-79 -36 -33 0
-79 -36 -1 0
-79 -35 0
-79 -35 -27 0
-79 -33 -27 0
-79 -27 0
-79 -1 0
-78 0
-78 -75 0
-78 -75 -34 0
-78 -75 -32 0
-78 -73 0
-78 -73 -32 0
-78 -61 0
-78 -52 0
-78 -43 0
-78 -43 -37 0
-78 -43 -35 0
-78 -37 -34 0
-78 -35 0
-78 -35 -32 0
-78 -34 0
-78 -34 -26 0
-78 -32 -26 0
-78 -26 0
-77 0
-77 -74 0
-77 -74 -33 0
-77 -74 -31 0
-77 -72 0
-77 -72 -31 0
-77 -60 0
-77 -51 0
-77 -42 0
-77 -42 -36 0
-77 -42 -34 0
-77 -36 -33 0
-77 -34 0
-77 -34 -31 0
-77 -33 0
-77 -33 -25 0
-77 -31 -25 0
-77 -25 0
-76 0
-76 -73 0
-76 -73 -32 0
-76 -73 -30 0
-76 -71 0
-76 -71 -30 0
-76 -59 0
-76 -50 0
-76 -41 0
-76 -41 -35 0
-76 -41 -33 0
-76 -35 -32 0
-76 -33 0
-76 -33 -30 0
-76 -32 0
-76 -32 -24 0
-76 -30 -24 0
-76 -24 0
-75 0
-75 -72 0
-75 -72 -31 0
-75 -72 -29 0
-75 -70 0
-75 -70 -29 0
-75 -58 0
-75 -49 0
-75 -40 0
-75 -40 -34 0
-75 -40 -32 0
-75 -34 -31 0
-75 -32 0
-75 -32 -29 0
-75 -31 0
-75 -31 -23 0
-75 -29 -23 0
-75 -23 0
-74 0
-74 -71 0
-74 -71 -30 0
-74 -71 -28 0
-74 -69 0
-74 -69 -28 0
-74 -57 0
-74 -48 0
-74 -39 0
-74 -39 -33 0
-74 -39 -31 0
-74 -33 -30 0
-74 -31 0
-74 -31 -28 0
-74 -30 0
-74 -30 -22 0
-74 -28 -22 0
-74 -22 0
-73 0
-73 -70 0
-73 -70 -29 0
-73 -70 -27 0
-73 -68 0
-73 -68 -27 0
-73 -56 0
-73 -47 0
-73 -38 0
-73 -38 -32 0
-73 -38 -30 0
-73 -32 -29 0
-73 -30 0
-73 -30 -27 0
-73 -29 0
-73 -29 -21 0
-73 -27 -21 0
-73 -21 0
-72 0
-72 -69 0
-72 -69 -28 0
-72 -69 -26 0
-72 -67 0
-72 -67 -26 0
-72 -55 0
-72 -46 0
-72 -37 0
-72 -37 -31 0
-72 -37 -29 0
-72 -31 -28 0
-72 -29 0
-72 -29 -26 0
-72 -28 0
-72 -28 -20 0
-72 -26 -20 0
-72 -20 0
-71 0
-71 -68 0
-71 -68 -27 0
-71 -68 -25 0
-71 -66 0
-71 -66 -25 0
-71 -54 0
-71 -45 0
-71 -36 0
-71 -36 -30 0
-71 -36 -28 0
-71 -30 -27 0
-71 -28 0
-71 -28 -25 0
-71 -27 0
-71 -27 -19 0
-71 -25 -19 0
-71 -19 0
-70 0
-70 -67 0
-70 -67 -26 0
-70 -67 -24 0
-70 -65 0
-70 -65 -24 0
-70 -53 0
-70 -44 0
-70 -35 0
-70 -35 -29 0
-70 -35 -27 0
-70 -29 -26 0
-70 -27 0
-70 -27 -24 0
-70 -26 0
-70 -26 -18 0
-70 -24 -18 0
-70 -18 0
-69 0
-69 -66 0
-69 -66 -25 0
-69 -66 -23 0
-69 -64 0
-69 -64 -23 0
-69 -52 0
-69 -34 0
-69 -34 -28 0
-69 -34 -26 0
-69 -28 -25 0
-69 -26 0
-69 -26 -23 0
-69 -25 0
-69 -25 -17 0
-69 -23 -17 0
-69 -17 0
-68 0
-68 -65 0
-68 -65 -24 0
-68 -65 -22 0
-68 -63 0
-68 -63 -22 0
-68 -51 0
-68 -33 0
-68 -33 -27 0
-68 -33 -25 0
-68 -27 -24 0
-68 -25 0
-68 -25 -22 0
-68 -24 0
-68 -24 -16 0
-68 -22 -16 0
-68 -16 0
-67 0
-67 -64 0
-67 -64 -23 0
-67 -64 -21 0
-67 -62 0
-67 -62 -21 0
-67 -50 0
-67 -32 0
-67 -32 -26 0
-67 -32 -24 0
-67 -26 -23 0
-67 -24 0
-67 -24 -21 0
-67 -23 0
-67 -23 -15 0
-67 -21 -15 0
-67 -15 0
-66 0
-66 -63 0
-66 -63 -22 0
-66 -63 -20 0
-66 -61 0
-66 -61 -20 0
-66 -49 0
-66 -31 0
-66 -31 -25 0
-66 -31 -23 0
-66 -25 -22 0
-66 -23 0
-66 -23 -20 0
-66 -22 0
-66 -22 -14 0
-66 -20 -14 0
-66 -14 0
-65 0
-65 -62 0
-65 -62 -21 0
-65 -62 -19 0
-65 -60 0
-65 -60 -19 0
-65 -48 0
-65 -30 0
-65 -30 -24 0
-65 -30 -22 0
-65 -24 -21 0
-65 -22 0
-65 -22 -19 0
-65 -21 0
-65 -21 -13 0
-65 -19 -13 0
-65 -13 0
-64 0
-64 -61 0
-64 -61 -20 0
-64 -61 -18 0
-64 -59 0
-64 -59 -18 0
-64 -47 0
-64 -29 0
-64 -29 -23 0
-64 -29 -21 0
-64 -23 -20 0
-64 -21 0
-64 -21 -18 0
-64 -20 0
-64 -20 -12 0
-64 -18 -12 0
-64 -12 0
-63 0
-63 -60 0
-63 -60 -19 0
-63 -60 -17 0
-63 -58 0
-63 -58 -17 0
-63 -46 0
-63 -28 0
-63 -28 -22 0
-63 -28 -20 0
-63 -22 -19 0
-63 -20 0
-63 -20 -17 0
-63 -19 0
-63 -19 -11 0
-63 -17 -11 0
-63 -11 0
-62 0
-62 -59 0
-62 -59 -18 0
-62 -59 -16 0
-62 -57 0
-62 -57 -16 0
-62 -45 0
-62 -27 0
-62 -27 -21 0
-62 -27 -19 0
-62 -21 -18 0
-62 -19 0
-62 -19 -16 0
-62 -18 0
-62 -18 -10 0
-62 -16 -10 0
-62 -10 0
-61 0
-61 -58 0
-61 -58 -17 0
-61 -58 -15 0
-61 -56 0
-61 -56 -15 0
-61 -44 0
-61 -26 0
-61 -26 -20 0
-61 -26 -18 0
-61 -20 -17 0
-61 -18 0
-61 -18 -15 0
-61 -17 0
-61 -17 -9 0
-61 -15 -9 0
-61 -9 0
-60 0
-60 -57 0
-60 -57 -16 0
-60 -57 -14 0
-60 -55 0
-60 -55 -14 0
-60 -25 0
-60 -25 -19 0
-60 -25 -17 0
-60 -19 -16 0
-60 -17 0
-60 -17 -14 0
-60 -16 0
-60 -16 -8 0
-60 -14 -8 0
-60 -8 0
-59 0
-59 -56 0
-59 -56 -15 0
-59 -56 -13 0
-59 -54 0
-59 -54 -13 0
-59 -24 0
-59 -24 -18 0
-59 -24 -16 0
-59 -18 -15 0
-59 -16 0
-59 -16 -13 0
-59 -15 0
-59 -15 -7 0
-59 -13 -7 0
-59 -7 0
-58 0
-58 -55 0
-58 -55 -14 0
-58 -55 -12 0
-58 -53 0
-58 -53 -12 0
-58 -23 0
-58 -23 -17 0
-58 -23 -15 0
-58 -17 -14 0
-58 -15 0
-58 -15 -12 0
-58 -14 0
-58 -14 -6 0
-58 -12 -6 0
-58 -6 0
-57 0
-57 -54 0
-57 -54 -13 0
-57 -54 -11 0
-57 -52 0
-57 -52 -11 0
-57 -22 0
-57 -22 -16 0
-57 -22 -14 0
-57 -16 -13 0
-57 -14 0
-57 -14 -11 0
-57 -13 0
-57 -13 -5 0
-57 -11 -5 0
-57 -5 0
-56 0
-56 -53 0
-56 -53 -12 0
-56 -53 -10 0
-56 -51 0
-56 -51 -10 0
-56 -21 0
-56 -21 -15 0
-56 -21 -13 0
-56 -15 -12 0
-56 -13 0
-56 -13 -10 0
-56 -12 0
-56 -12 -4 0
-56 -10 -4 0
-56 -4 0
-55 0
-55 -52 0
-55 -52 -11 0
-55 -52 -9 0
-55 -50 0
-55 -50 -9 0
-55 -20 0
-55 -20 -14 0
-55 -20 -12 0
-55 -14 -11 0
-55 -12 0
-55 -12 -9 0
-55 -11 0
-55 -11 -3 0
-55 -9 -3 0
-55 -3 0
-54 0
-54 -51 0
-54 -51 -10 0
-54 -51 -8 0
-54 -49 0
-54 -49 -8 0
-54 -19 0
-54 -19 -13 0
-54 -19 -11 0
-54 -13 -10 0
-54 -11 0
-54 -11 -8 0
-54 -10 0
-54 -10 -2 0
-54 -8 -2 0
-54 -2 0
-53 0
-53 -50 0
-53 -50 -9 0
-53 -50 -7 0
-53 -48 0
-53 -48 -7 0
-53 -18 0
-53 -18 -12 0
-53 -18 -10 0
-53 -12 -9 0
-53 -10 0
-53 -10 -7 0
-53 -9 0
-53 -9 -1 0
-53 -7 -1 0
-53 -1 0
-52 0
-52 -49 0
-52 -49 -8 0
-52 -49 -6 0
-52 -47 0
-52 -47 -6 0
-52 -43 0
-52 -43 -8 0
-52 -43 -6 0
-52 -17 0
-52 -17 -11 0
-52 -17 -9 0
-52 -11 -8 0
-52 -9 0
-52 -9 -6 0
-52 -8 0
-51 0
-51 -48 0
-51 -48 -7 0
-51 -48 -5 0
-51 -46 0
-51 -46 -5 0
-51 -42 0
-51 -42 -7 0
-51 -42 -5 0
-51 -16 0
-51 -16 -10 0
-51 -16 -8 0
-51 -10 -7 0
-51 -8 0
-51 -8 -5 0
-51 -7 0
-50 0
-50 -47 0
-50 -47 -6 0
-50 -47 -4 0
-50 -45 0
-50 -45 -4 0
-50 -41 0
-50 -41 -6 0
-50 -41 -4 0
-50 -15 0
-50 -15 -9 0
-50 -15 -7 0
-50 -9 -6 0
-50 -7 0
-50 -7 -4 0
-50 -6 0
-49 0
-49 -46 0
-49 -46 -5 0
-49 -46 -3 0
-49 -44 0
-49 -44 -3 0
-49 -40 0
-49 -40 -5 0
-49 -40 -3 0
-49 -14 0
-49 -14 -8 0
-49 -14 -6 0
-49 -8 -5 0
-49 -6 0
-49 -6 -3 0
-49 -5 0
-48 0
-48 -45 0
-48 -45 -4 0
-48 -45 -2 0
-48 -39 0
-48 -39 -4 0
-48 -39 -2 0
-48 -13 0
-48 -13 -7 0
-48 -13 -5 0
-48 -7 -4 0
-48 -5 0
-48 -5 -2 0
-48 -4 0
-47 0
-47 -44 0
-47 -44 -3 0
-47 -44 -1 0
-47 -38 0
-47 -38 -3 0
-47 -38 -1 0
-47 -12 0
-47 -12 -6 0
-47 -12 -4 0
-47 -6 -3 0
-47 -4 0
-47 -4 -1 0
-47 -3 0
-46 0
-46 -43 -37 0
-46 -43 -3 0
-46 -37 0
-46 -37 -2 0
-46 -11 0
-46 -11 -5 0
-46 -11 -3 0
-46 -5 -2 0
-46 -3 0
-46 -2 0
-45 0
-45 -42 -36 0
-45 -42 -2 0
-45 -36 0
-45 -36 -1 0
-45 -10 0
-45 -10 -4 0
-45 -10 -2 0
-45 -4 -1 0
-45 -2 0
-45 -1 0
-44 0
-44 -43 0
-44 -43 -35 0
-44 -43 -3 0
-44 -41 -35 0
-44 -41 -1 0
-44 -35 0
-44 -9 0
-44 -9 -3 0
-44 -9 -1 0
-44 -1 0
-43 -40 -37 0
-43 -40 -3 0
-43 -6 -3 0
-42 -39 -36 0
-42 -39 -2 0
-42 -5 -2 0
-41 -38 -35 0
-41 -38 -1 0
-41 -4 -1 0
-40 -37 -34 0
-39 -36 -33 0
-38 -35 -32 0
-37 -34 -31 0
-36 -33 -30 0
-35 -32 -29 0
-34 -31 -28 0
-33 -30 -27 0
-32 -29 -26 0
-31 -28 -25 0
-30 -27 -24 0
-29 -26 -23 0
-28 -25 -22 0
-27 -24 -21 0
-26 -23 -20 0
-25 -22 -19 0
-24 -21 -18 0
-23 -20 -17 0
-22 -19 -16 0
-21 -18 -15 0
-20 -17 -14 0
-19 -16 -13 0
-18 -15 -12 0
-17 -14 -11 0
-16 -13 -10 0
-15 -12 -9 0
-14 -11 -8 0
-13 -10 -7 0
-12 -9 -6 0
-11 -8 -5 0
-10 -7 -4 0
-9 -6 -3 0
-8 -5 -2 0
-7 -4 -1 0
1 14 63 0
1 14 82 0
1 20 69 0
1 20 82 0
1 25 50 0
1 25 63 0
1 31 50 0
1 31 69 0
2 15 64 0
2 15 83 0
2 21 70 0
2 21 83 0
2 26 51 0
2 26 64 0
2 32 51 0
2 32 70 0
3 16 65 0
3 16 84 0
3 22 71 0
3 22 84 0
3 27 52 0
3 27 65 0
3 33 52 0
3 33 71 0
4 17 66 0
4 17 85 0
4 23 72 0
4 23 85 0
4 28 53 0
4 28 66 0
4 34 53 0
4 34 72 0
5 18 67 0
5 18 86 0
5 24 73 0
5 24 86 0
5 29 54 0
5 29 67 0
5 35 54 0
5 35 73 0
6 19 44 0
6 19 68 0
6 25 44 0
6 25 74 0
6 30 55 0
6 30 68 0
6 36 55 0
6 36 74 0
7 20 45 0
7 20 69 0
7 26 45 0
7 26 75 0
7 31 56 0
7 31 69 0
7 37 56 0
7 37 75 0
8 21 46 0
8 21 70 0
8 27 46 0
8 27 76 0
8 32 57 0
8 32 70 0
8 38 57 0
8 38 76 0
9 22 47 0
9 22 71 0
9 28 47 0
9 28 77 0
9 33 58 0
9 33 71 0
9 39 58 0
9 39 77 0
10 23 48 0
10 23 72 0
10 29 48 0
10 29 78 0
10 34 59 0
10 34 72 0
10 40 59 0
10 40 78 0
11 24 49 0
11 24 73 0
11 30 49 0
11 30 79 0
11 35 60 0
11 35 73 0
11 41 60 0
11 41 79 0
12 25 50 0
12 25 74 0
12 31 50 0
12 31 80 0
12 36 61 0
12 36 74 0
12 42 61 0
12 42 80 0
13 26 51 0
13 26 75 0
13 32 51 0
13 32 81 0
13 37 62 0
13 37 75 0
13 43 62 0
13 43 81 0
14 27 52 0
14 27 76 0
14 33 52 0
14 33 82 0
14 38 63 0
14 38 76 0
15 28 53 0
15 28 77 0
15 34 53 0
15 34 83 0
15 39 64 0
15 39 77 0
16 29 54 0
16 29 78 0
16 35 54 0
16 35 84 0
16 40 65 0
16 40 78 0
17 30 55 0
17 30 79 0
17 36 55 0
17 36 85 0
17 41 66 0
17 41 79 0
18 31 56 0
18 31 80 0
18 37 56 0
18 37 86 0
18 42 67 0
18 42 80 0
19 32 57 0
19 32 81 0
19 38 44 0
19 38 57 0
19 43 68 0
19 43 81 0
20 33 58 0
20 33 82 0
20 39 45 0
20 39 58 0
21 34 59 0
21 34 83 0
21 40 46 0
21 40 59 0
22 35 60 0
22 35 84 0
22 41 47 0
22 41 60 0
23 36 61 0
23 36 85 0
23 42 48 0
23 42 61 0
24 37 62 0
24 37 86 0
24 43 49 0
24 43 62 0
25 38 44 0
25 38 63 0
26 39 45 0
26 39 64 0
27 40 46 0
27 40 65 0
28 41 47 0
28 41 66 0
29 42 48 0
29 42 67 0
30 43 49 0
30 43 68 0
